(declare-fun var0 () String)
(declare-fun var1 () String)
(declare-fun var2 () String)
(declare-fun var3 () String)
(assert (= var0 (Concat "$\\~qc" (Concat var1 ""))))
(assert (= var2 (Concat "A!|pT" (Concat var3 ""))))
(assert (= var0 var2))
(check-sat)